c ind 1 22 23 24 25 26 27 28 29 30 31 32 33 34 35 36 37 38 39 40 41 42 43 44 45 46 0
p cnf 86 162
-5 -7 0
6 -7 0
5 -6 7 0
-5 -9 0
6 -9 0
8 -9 0
5 -6 -8 9 0
-5 -11 0
6 -11 0
8 -11 0
10 -11 0
5 -6 -8 -10 11 0
-5 -13 0
6 -13 0
8 -13 0
10 -13 0
12 -13 0
5 -6 -8 -10 -12 13 0
-5 -15 0
6 -15 0
8 -15 0
10 -15 0
12 -15 0
14 -15 0
5 -6 -8 -10 -12 -14 15 0
-5 -16 0
6 -16 0
8 -16 0
10 -16 0
12 -16 0
-14 -16 0
5 -6 -8 -10 -12 14 16 0
-5 -17 0
6 -17 0
8 -17 0
10 -17 0
-12 -17 0
5 -6 -8 -10 12 17 0
-5 -18 0
6 -18 0
8 -18 0
-10 -18 0
5 -6 -8 10 18 0
-5 -19 0
6 -19 0
-8 -19 0
5 -6 8 19 0
-5 -20 0
-6 -20 0
5 6 20 0
21 0
-1 22 -47 0
1 -22 -47 0
-1 -22 47 0
1 22 47 0
-47 0
1 -49 0
-28 -49 0
-1 28 49 0
-2 -49 -50 0
2 49 -50 0
-2 49 50 0
2 -49 50 0
-50 0
2 -52 0
-34 -52 0
-2 34 52 0
-3 -52 -53 0
3 52 -53 0
-3 52 53 0
3 -52 53 0
-53 0
3 -55 0
-40 -55 0
-3 40 55 0
-4 -55 -56 0
4 55 -56 0
-4 55 56 0
4 -55 56 0
-56 0
4 -58 0
-46 -58 0
-4 46 58 0
-5 -58 -59 0
5 58 -59 0
-5 58 59 0
5 -58 59 0
-59 0
-34 60 0
34 -60 0
-34 -61 0
34 -61 0
34 62 0
-61 62 0
-34 61 -62 0
-6 -62 -63 0
6 62 -63 0
-6 62 63 0
6 -62 63 0
-63 0
-22 64 0
22 -64 0
-22 -65 0
22 -65 0
22 66 0
-65 66 0
-22 65 -66 0
-8 -66 -67 0
8 66 -67 0
-8 66 67 0
8 -66 67 0
-67 0
-28 68 0
28 -68 0
-28 -69 0
28 -69 0
28 70 0
-69 70 0
-28 69 -70 0
-10 -70 -71 0
10 70 -71 0
-10 70 71 0
10 -70 71 0
-71 0
-40 72 0
40 -72 0
-40 -73 0
40 -73 0
40 74 0
-73 74 0
-40 73 -74 0
-12 -74 -75 0
12 74 -75 0
-12 74 75 0
12 -74 75 0
-75 0
-46 76 0
46 -76 0
-46 -77 0
46 -77 0
46 78 0
-77 78 0
-46 77 -78 0
-14 -78 -79 0
14 78 -79 0
-14 78 79 0
14 -78 79 0
-79 0
16 17 18 19 20 0
-80 -82 -84 0
80 82 -84 0
-80 82 84 0
80 -82 84 0
-81 -83 -85 0
81 83 -85 0
-81 83 85 0
81 -83 85 0
-84 -86 0
-85 -86 0
84 85 86 0
-21 86 0
21 -86 0
c __CPROVER_malloc_is_new_array#1 FALSE
c check::$tmp::tmp_if_expr$1!0@1#1 48
c goto_symex::\guard#1 1
c check::$tmp::tmp_if_expr$1!0@1#2 -28
c check::$tmp::tmp_if_expr$1!0@1#3 48
c check::$tmp::tmp_if_expr$1!0@1#4 FALSE
c check::$tmp::tmp_if_expr$1!0@1#5 2
c check::$tmp::tmp_if_expr$2!0@1#1 51
c check::$tmp::tmp_if_expr$2!0@1#2 -34
c check::$tmp::tmp_if_expr$2!0@1#3 51
c check::$tmp::tmp_if_expr$2!0@1#4 FALSE
c check::$tmp::tmp_if_expr$2!0@1#5 3
c check::$tmp::tmp_if_expr$3!0@1#1 54
c check::$tmp::tmp_if_expr$3!0@1#2 -40
c check::$tmp::tmp_if_expr$3!0@1#3 54
c check::$tmp::tmp_if_expr$3!0@1#4 FALSE
c check::$tmp::tmp_if_expr$3!0@1#5 4
c check::$tmp::tmp_if_expr$4!0@1#1 57
c check::$tmp::tmp_if_expr$4!0@1#2 -46
c check::$tmp::tmp_if_expr$4!0@1#3 57
c check::$tmp::tmp_if_expr$4!0@1#4 FALSE
c check::$tmp::tmp_if_expr$4!0@1#5 5
c goto_symex::\guard#2 6
c goto_symex::\guard#3 8
c goto_symex::\guard#4 10
c goto_symex::\guard#5 12
c goto_symex::\guard#6 14
c __CPROVER_thread_id!0#1 FALSE FALSE FALSE FALSE FALSE FALSE FALSE FALSE FALSE FALSE FALSE FALSE FALSE FALSE FALSE FALSE FALSE FALSE FALSE FALSE FALSE FALSE FALSE FALSE FALSE FALSE FALSE FALSE FALSE FALSE FALSE FALSE FALSE FALSE FALSE FALSE FALSE FALSE FALSE FALSE FALSE FALSE FALSE FALSE FALSE FALSE FALSE FALSE FALSE FALSE FALSE FALSE FALSE FALSE FALSE FALSE FALSE FALSE FALSE FALSE FALSE FALSE FALSE FALSE
c __CPROVER_rounding_mode!0#1 FALSE FALSE FALSE FALSE FALSE FALSE FALSE FALSE FALSE FALSE FALSE FALSE FALSE FALSE FALSE FALSE FALSE FALSE FALSE FALSE FALSE FALSE FALSE FALSE FALSE FALSE FALSE FALSE FALSE FALSE FALSE FALSE
c check::1::x!0@1#1 22 23 24 25 26 27 28 29 30 31 32 33 34 35 36 37 38 39 40 41 42 43 44 45 46
c __CPROVER_pipe_count#1 FALSE FALSE FALSE FALSE FALSE FALSE FALSE FALSE FALSE FALSE FALSE FALSE FALSE FALSE FALSE FALSE FALSE FALSE FALSE FALSE FALSE FALSE FALSE FALSE FALSE FALSE FALSE FALSE FALSE FALSE FALSE FALSE
c __CPROVER_deallocated#1 FALSE FALSE FALSE FALSE FALSE FALSE FALSE FALSE FALSE FALSE FALSE FALSE FALSE FALSE FALSE FALSE FALSE FALSE FALSE FALSE FALSE FALSE FALSE FALSE FALSE FALSE FALSE FALSE FALSE FALSE FALSE FALSE FALSE FALSE FALSE FALSE FALSE FALSE FALSE FALSE FALSE FALSE FALSE FALSE FALSE FALSE FALSE FALSE FALSE FALSE FALSE FALSE FALSE FALSE FALSE FALSE FALSE FALSE FALSE FALSE FALSE FALSE FALSE FALSE
c __CPROVER_dead_object#1 FALSE FALSE FALSE FALSE FALSE FALSE FALSE FALSE FALSE FALSE FALSE FALSE FALSE FALSE FALSE FALSE FALSE FALSE FALSE FALSE FALSE FALSE FALSE FALSE FALSE FALSE FALSE FALSE FALSE FALSE FALSE FALSE FALSE FALSE FALSE FALSE FALSE FALSE FALSE FALSE FALSE FALSE FALSE FALSE FALSE FALSE FALSE FALSE FALSE FALSE FALSE FALSE FALSE FALSE FALSE FALSE FALSE FALSE FALSE FALSE FALSE FALSE FALSE FALSE
c __CPROVER_next_thread_id#1 FALSE FALSE FALSE FALSE FALSE FALSE FALSE FALSE FALSE FALSE FALSE FALSE FALSE FALSE FALSE FALSE FALSE FALSE FALSE FALSE FALSE FALSE FALSE FALSE FALSE FALSE FALSE FALSE FALSE FALSE FALSE FALSE FALSE FALSE FALSE FALSE FALSE FALSE FALSE FALSE FALSE FALSE FALSE FALSE FALSE FALSE FALSE FALSE FALSE FALSE FALSE FALSE FALSE FALSE FALSE FALSE FALSE FALSE FALSE FALSE FALSE FALSE FALSE FALSE
c __CPROVER_malloc_object#1 FALSE FALSE FALSE FALSE FALSE FALSE FALSE FALSE FALSE FALSE FALSE FALSE FALSE FALSE FALSE FALSE FALSE FALSE FALSE FALSE FALSE FALSE FALSE FALSE FALSE FALSE FALSE FALSE FALSE FALSE FALSE FALSE FALSE FALSE FALSE FALSE FALSE FALSE FALSE FALSE FALSE FALSE FALSE FALSE FALSE FALSE FALSE FALSE FALSE FALSE FALSE FALSE FALSE FALSE FALSE FALSE FALSE FALSE FALSE FALSE FALSE FALSE FALSE FALSE
c __CPROVER_malloc_size#1 FALSE FALSE FALSE FALSE FALSE FALSE FALSE FALSE FALSE FALSE FALSE FALSE FALSE FALSE FALSE FALSE FALSE FALSE FALSE FALSE FALSE FALSE FALSE FALSE FALSE FALSE FALSE FALSE FALSE FALSE FALSE FALSE FALSE FALSE FALSE FALSE FALSE FALSE FALSE FALSE FALSE FALSE FALSE FALSE FALSE FALSE FALSE FALSE FALSE FALSE FALSE FALSE FALSE FALSE FALSE FALSE FALSE FALSE FALSE FALSE FALSE FALSE FALSE FALSE
c __CPROVER_memory_leak#1 FALSE FALSE FALSE FALSE FALSE FALSE FALSE FALSE FALSE FALSE FALSE FALSE FALSE FALSE FALSE FALSE FALSE FALSE FALSE FALSE FALSE FALSE FALSE FALSE FALSE FALSE FALSE FALSE FALSE FALSE FALSE FALSE FALSE FALSE FALSE FALSE FALSE FALSE FALSE FALSE FALSE FALSE FALSE FALSE FALSE FALSE FALSE FALSE FALSE FALSE FALSE FALSE FALSE FALSE FALSE FALSE FALSE FALSE FALSE FALSE FALSE FALSE FALSE FALSE
